Test: fpga12_12_sat.cnf
Options: -print-activity -no-inverting-opt -activity-nl-freq=1
WARNING: for repeatability, setting FPU to use double precision
============================[ Problem Statistics ]=============================
|                                                                             |
|  Number of symmetries:           32                                         |
|  Number of invertingSyms:         0                                         |
|  Number of variables:           216                                         |
|  Number of clauses:            1128                                         |
|  Parse time:                   0.00 s                                       |
|                                                                             |
============================[ Search Statistics ]==============================
| Conflicts |          ORIGINAL         |          LEARNT          | Progress |
|           |    Vars  Clauses Literals |    Limit  Clauses Lit/Cl |          |
===============================================================================
ActiveSyms: 32
ActiveSyms: 29
ActiveSyms: 29
ActiveSyms: 29
ActiveSyms: 29
ActiveSyms: 29
ActiveSyms: 27
ActiveSyms: 27
ActiveSyms: 27
ActiveSyms: 27
ActiveSyms: 27
ActiveSyms: 28
ActiveSyms: 26
ActiveSyms: 26
ActiveSyms: 26
ActiveSyms: 26
ActiveSyms: 26
ActiveSyms: 28
ActiveSyms: 26
ActiveSyms: 26
ActiveSyms: 26
ActiveSyms: 26
ActiveSyms: 26
ActiveSyms: 28
ActiveSyms: 26
ActiveSyms: 26
ActiveSyms: 26
ActiveSyms: 26
ActiveSyms: 26
ActiveSyms: 28
ActiveSyms: 26
ActiveSyms: 26
ActiveSyms: 26
ActiveSyms: 26
ActiveSyms: 26
ActiveSyms: 28
ActiveSyms: 27
ActiveSyms: 27
ActiveSyms: 27
ActiveSyms: 27
ActiveSyms: 27
ActiveSyms: 29
ActiveSyms: 28
ActiveSyms: 28
ActiveSyms: 28
ActiveSyms: 28
ActiveSyms: 28
ActiveSyms: 26
ActiveSyms: 26
ActiveSyms: 26
ActiveSyms: 26
ActiveSyms: 27
ActiveSyms: 25
ActiveSyms: 25
ActiveSyms: 25
ActiveSyms: 25
ActiveSyms: 27
ActiveSyms: 25
ActiveSyms: 25
ActiveSyms: 25
ActiveSyms: 25
ActiveSyms: 27
ActiveSyms: 25
ActiveSyms: 26
ActiveSyms: 24
ActiveSyms: 26
ActiveSyms: 24
ActiveSyms: 26
ActiveSyms: 24
ActiveSyms: 25
ActiveSyms: 24
ActiveSyms: 23
ActiveSyms: 27
ActiveSyms: 25
ActiveSyms: 23
ActiveSyms: 22
ActiveSyms: 22
ActiveSyms: 21
ActiveSyms: 22
ActiveSyms: 27
ActiveSyms: 25
ActiveSyms: 23
ActiveSyms: 22
ActiveSyms: 23
ActiveSyms: 23
ActiveSyms: 21
ActiveSyms: 22
ActiveSyms: 20
ActiveSyms: 22
ActiveSyms: 23
ActiveSyms: 27
ActiveSyms: 26
ActiveSyms: 24
ActiveSyms: 24
ActiveSyms: 24
ActiveSyms: 25
ActiveSyms: 24
ActiveSyms: 22
ActiveSyms: 20
ActiveSyms: 20
ActiveSyms: 21
ActiveSyms: 20
ActiveSyms: 21
ActiveSyms: 21
ActiveSyms: 20
ActiveSyms: 22
ActiveSyms: 25
ActiveSyms: 24
ActiveSyms: 24
ActiveSyms: 29
ActiveSyms: 27
ActiveSyms: 25
ActiveSyms: 25
ActiveSyms: 24
ActiveSyms: 25
ActiveSyms: 24
ActiveSyms: 25
ActiveSyms: 25
ActiveSyms: 24
ActiveSyms: 22
ActiveSyms: 23
ActiveSyms: 23
ActiveSyms: 21
ActiveSyms: 21
ActiveSyms: 20
ActiveSyms: 19
ActiveSyms: 20
ActiveSyms: 19
ActiveSyms: 20
ActiveSyms: 19
ActiveSyms: 23
ActiveSyms: 23
ActiveSyms: 22
ActiveSyms: 22
ActiveSyms: 22
ActiveSyms: 21
ActiveSyms: 20
ActiveSyms: 20
ActiveSyms: 20
ActiveSyms: 20
ActiveSyms: 21
ActiveSyms: 20
ActiveSyms: 20
ActiveSyms: 19
ActiveSyms: 20
ActiveSyms: 19
ActiveSyms: 17
ActiveSyms: 20
ActiveSyms: 20
ActiveSyms: 20
ActiveSyms: 20
ActiveSyms: 19
ActiveSyms: 20
ActiveSyms: 19
ActiveSyms: 18
ActiveSyms: 20
ActiveSyms: 20
ActiveSyms: 19
ActiveSyms: 20
ActiveSyms: 21
ActiveSyms: 21
ActiveSyms: 23
ActiveSyms: 24
ActiveSyms: 25
ActiveSyms: 25
ActiveSyms: 24
ActiveSyms: 23
ActiveSyms: 23
ActiveSyms: 23
ActiveSyms: 26
ActiveSyms: 25
ActiveSyms: 24
ActiveSyms: 25
ActiveSyms: 25
ActiveSyms: 28
ActiveSyms: 26
ActiveSyms: 24
ActiveSyms: 24
ActiveSyms: 24
ActiveSyms: 22
ActiveSyms: 22
ActiveSyms: 24
ActiveSyms: 25
ActiveSyms: 25
ActiveSyms: 25
ActiveSyms: 24
ActiveSyms: 24
ActiveSyms: 23
ActiveSyms: 22
ActiveSyms: 22
ActiveSyms: 21
ActiveSyms: 21
ActiveSyms: 20
ActiveSyms: 20
ActiveSyms: 19
ActiveSyms: 18
ActiveSyms: 18
ActiveSyms: 18
ActiveSyms: 20
ActiveSyms: 20
ActiveSyms: 20
ActiveSyms: 21
ActiveSyms: 21
ActiveSyms: 23
ActiveSyms: 23
ActiveSyms: 20
ActiveSyms: 24
ActiveSyms: 26
ActiveSyms: 24
ActiveSyms: 24
ActiveSyms: 24
ActiveSyms: 22
ActiveSyms: 22
ActiveSyms: 22
ActiveSyms: 21
ActiveSyms: 21
ActiveSyms: 21
ActiveSyms: 20
ActiveSyms: 19
ActiveSyms: 19
ActiveSyms: 21
ActiveSyms: 21
ActiveSyms: 21
ActiveSyms: 21
ActiveSyms: 23
ActiveSyms: 22
ActiveSyms: 22
ActiveSyms: 24
ActiveSyms: 24
ActiveSyms: 25
ActiveSyms: 22
ActiveSyms: 24
ActiveSyms: 23
ActiveSyms: 22
ActiveSyms: 20
ActiveSyms: 20
ActiveSyms: 20
ActiveSyms: 19
ActiveSyms: 19
ActiveSyms: 18
ActiveSyms: 19
ActiveSyms: 18
ActiveSyms: 17
ActiveSyms: 19
ActiveSyms: 19
ActiveSyms: 18
ActiveSyms: 17
ActiveSyms: 16
ActiveSyms: 18
ActiveSyms: 19
ActiveSyms: 21
ActiveSyms: 20
ActiveSyms: 20
ActiveSyms: 22
ActiveSyms: 24
ActiveSyms: 22
ActiveSyms: 23
ActiveSyms: 22
ActiveSyms: 21
ActiveSyms: 21
ActiveSyms: 21
ActiveSyms: 21
ActiveSyms: 21
ActiveSyms: 19
ActiveSyms: 18
ActiveSyms: 18
ActiveSyms: 19
ActiveSyms: 17
ActiveSyms: 18
ActiveSyms: 17
ActiveSyms: 16
ActiveSyms: 16
ActiveSyms: 16
ActiveSyms: 18
ActiveSyms: 16
ActiveSyms: 16
ActiveSyms: 15
ActiveSyms: 18
ActiveSyms: 17
ActiveSyms: 19
ActiveSyms: 21
ActiveSyms: 21
ActiveSyms: 21
ActiveSyms: 23
ActiveSyms: 24
ActiveSyms: 24
ActiveSyms: 24
ActiveSyms: 22
ActiveSyms: 22
ActiveSyms: 21
ActiveSyms: 22
ActiveSyms: 24
ActiveSyms: 22
ActiveSyms: 24
ActiveSyms: 24
ActiveSyms: 24
ActiveSyms: 28
|       100 |     216     1128     3096 |      413      358     39 |  0.002 % |
ActiveSyms: 26
ActiveSyms: 32
ActiveSyms: 28
ActiveSyms: 28
ActiveSyms: 28
ActiveSyms: 26
ActiveSyms: 26
ActiveSyms: 28
ActiveSyms: 26
ActiveSyms: 26
ActiveSyms: 28
ActiveSyms: 25
ActiveSyms: 25
ActiveSyms: 26
ActiveSyms: 23
ActiveSyms: 24
ActiveSyms: 22
ActiveSyms: 24
ActiveSyms: 23
ActiveSyms: 26
ActiveSyms: 24
ActiveSyms: 23
ActiveSyms: 22
ActiveSyms: 24
ActiveSyms: 23
ActiveSyms: 26
ActiveSyms: 25
ActiveSyms: 25
ActiveSyms: 24
ActiveSyms: 25
ActiveSyms: 23
ActiveSyms: 20
ActiveSyms: 20
ActiveSyms: 20
ActiveSyms: 20
ActiveSyms: 20
ActiveSyms: 21
ActiveSyms: 20
ActiveSyms: 20
ActiveSyms: 20
ActiveSyms: 18
ActiveSyms: 18
ActiveSyms: 17
ActiveSyms: 16
ActiveSyms: 15
ActiveSyms: 13
ActiveSyms: 13
ActiveSyms: 13
ActiveSyms: 15
ActiveSyms: 15
ActiveSyms: 14
ActiveSyms: 13
ActiveSyms: 14
ActiveSyms: 15
ActiveSyms: 15
ActiveSyms: 15
ActiveSyms: 14
ActiveSyms: 14
ActiveSyms: 13
ActiveSyms: 13
ActiveSyms: 14
ActiveSyms: 14
ActiveSyms: 15
ActiveSyms: 15
ActiveSyms: 15
ActiveSyms: 15
ActiveSyms: 15
ActiveSyms: 15
ActiveSyms: 15
ActiveSyms: 15
ActiveSyms: 14
ActiveSyms: 14
ActiveSyms: 15
ActiveSyms: 15
ActiveSyms: 15
ActiveSyms: 14
ActiveSyms: 15
ActiveSyms: 16
ActiveSyms: 15
ActiveSyms: 15
ActiveSyms: 15
ActiveSyms: 15
ActiveSyms: 15
ActiveSyms: 15
ActiveSyms: 14
ActiveSyms: 14
ActiveSyms: 13
ActiveSyms: 14
ActiveSyms: 14
ActiveSyms: 13
ActiveSyms: 14
ActiveSyms: 13
ActiveSyms: 14
ActiveSyms: 14
ActiveSyms: 14
ActiveSyms: 15
ActiveSyms: 15
ActiveSyms: 15
ActiveSyms: 15
ActiveSyms: 14
ActiveSyms: 14
ActiveSyms: 15
ActiveSyms: 14
ActiveSyms: 14
ActiveSyms: 13
ActiveSyms: 14
ActiveSyms: 13
ActiveSyms: 14
ActiveSyms: 15
ActiveSyms: 14
ActiveSyms: 15
ActiveSyms: 15
ActiveSyms: 15
ActiveSyms: 14
ActiveSyms: 14
ActiveSyms: 15
ActiveSyms: 14
ActiveSyms: 13
ActiveSyms: 13
ActiveSyms: 13
ActiveSyms: 13
ActiveSyms: 13
ActiveSyms: 13
ActiveSyms: 12
ActiveSyms: 13
ActiveSyms: 12
ActiveSyms: 13
ActiveSyms: 14
ActiveSyms: 14
ActiveSyms: 15
ActiveSyms: 15
ActiveSyms: 16
ActiveSyms: 15
ActiveSyms: 14
ActiveSyms: 14
ActiveSyms: 14
ActiveSyms: 14
ActiveSyms: 14
ActiveSyms: 14
ActiveSyms: 14
ActiveSyms: 14
ActiveSyms: 14
ActiveSyms: 14
ActiveSyms: 14
ActiveSyms: 14
ActiveSyms: 15
ActiveSyms: 15
ActiveSyms: 14
ActiveSyms: 14
ActiveSyms: 15
ActiveSyms: 14
ActiveSyms: 15
ActiveSyms: 14
ActiveSyms: 13
ActiveSyms: 13
ActiveSyms: 13
ActiveSyms: 15
ActiveSyms: 13
ActiveSyms: 15
ActiveSyms: 14
ActiveSyms: 14
ActiveSyms: 13
ActiveSyms: 14
ActiveSyms: 14
ActiveSyms: 15
ActiveSyms: 15
ActiveSyms: 14
ActiveSyms: 14
ActiveSyms: 14
ActiveSyms: 15
ActiveSyms: 15
ActiveSyms: 14
ActiveSyms: 14
ActiveSyms: 14
ActiveSyms: 14
ActiveSyms: 14
ActiveSyms: 14
ActiveSyms: 14
ActiveSyms: 14
ActiveSyms: 13
ActiveSyms: 12
ActiveSyms: 14
ActiveSyms: 14
ActiveSyms: 14
ActiveSyms: 14
ActiveSyms: 14
ActiveSyms: 14
ActiveSyms: 14
ActiveSyms: 13
ActiveSyms: 14
ActiveSyms: 13
ActiveSyms: 13
ActiveSyms: 14
ActiveSyms: 14
ActiveSyms: 14
ActiveSyms: 14
ActiveSyms: 15
ActiveSyms: 14
ActiveSyms: 14
ActiveSyms: 13
ActiveSyms: 14
ActiveSyms: 14
ActiveSyms: 14
ActiveSyms: 14
ActiveSyms: 14
ActiveSyms: 14
ActiveSyms: 15
ActiveSyms: 15
ActiveSyms: 14
ActiveSyms: 14
ActiveSyms: 15
ActiveSyms: 15
ActiveSyms: 14
ActiveSyms: 14
ActiveSyms: 14
ActiveSyms: 14
ActiveSyms: 14
ActiveSyms: 15
ActiveSyms: 14
ActiveSyms: 13
ActiveSyms: 14
ActiveSyms: 14
ActiveSyms: 14
ActiveSyms: 15
ActiveSyms: 15
ActiveSyms: 14
ActiveSyms: 14
ActiveSyms: 15
ActiveSyms: 14
ActiveSyms: 14
ActiveSyms: 14
ActiveSyms: 15
ActiveSyms: 14
ActiveSyms: 14
ActiveSyms: 13
ActiveSyms: 12
ActiveSyms: 13
ActiveSyms: 14
ActiveSyms: 14
ActiveSyms: 15
ActiveSyms: 14
ActiveSyms: 14
ActiveSyms: 15
ActiveSyms: 15
ActiveSyms: 16
ActiveSyms: 16
ActiveSyms: 16
ActiveSyms: 16
ActiveSyms: 15
ActiveSyms: 14
ActiveSyms: 14
ActiveSyms: 14
ActiveSyms: 14
ActiveSyms: 15
ActiveSyms: 15
ActiveSyms: 15
ActiveSyms: 14
ActiveSyms: 14
ActiveSyms: 13
ActiveSyms: 12
ActiveSyms: 14
ActiveSyms: 14
ActiveSyms: 14
ActiveSyms: 15
ActiveSyms: 16
ActiveSyms: 16
ActiveSyms: 15
ActiveSyms: 16
ActiveSyms: 16
ActiveSyms: 15
ActiveSyms: 15
ActiveSyms: 15
ActiveSyms: 15
ActiveSyms: 15
ActiveSyms: 14
ActiveSyms: 15
ActiveSyms: 16
ActiveSyms: 14
ActiveSyms: 15
ActiveSyms: 14
ActiveSyms: 13
ActiveSyms: 15
ActiveSyms: 14
ActiveSyms: 15
ActiveSyms: 15
ActiveSyms: 15
ActiveSyms: 16
ActiveSyms: 14
ActiveSyms: 15
ActiveSyms: 14
ActiveSyms: 14
ActiveSyms: 14
ActiveSyms: 13
ActiveSyms: 13
ActiveSyms: 13
ActiveSyms: 13
ActiveSyms: 13
ActiveSyms: 13
ActiveSyms: 13
ActiveSyms: 13
ActiveSyms: 14
ActiveSyms: 14
ActiveSyms: 13
ActiveSyms: 13
ActiveSyms: 13
ActiveSyms: 14
ActiveSyms: 14
ActiveSyms: 14
ActiveSyms: 13
ActiveSyms: 13
ActiveSyms: 13
ActiveSyms: 13
ActiveSyms: 13
ActiveSyms: 14
ActiveSyms: 13
ActiveSyms: 14
ActiveSyms: 32
ActiveSyms: 28
ActiveSyms: 28
ActiveSyms: 28
ActiveSyms: 28
ActiveSyms: 27
ActiveSyms: 25
ActiveSyms: 23
ActiveSyms: 23
ActiveSyms: 23
ActiveSyms: 22
ActiveSyms: 22
ActiveSyms: 22
ActiveSyms: 23
ActiveSyms: 22
ActiveSyms: 21
ActiveSyms: 21
ActiveSyms: 21
ActiveSyms: 21
ActiveSyms: 20
ActiveSyms: 20
ActiveSyms: 20
ActiveSyms: 21
ActiveSyms: 20
ActiveSyms: 21
ActiveSyms: 20
ActiveSyms: 20
ActiveSyms: 20
ActiveSyms: 19
ActiveSyms: 19
ActiveSyms: 17
ActiveSyms: 17
ActiveSyms: 18
ActiveSyms: 17
ActiveSyms: 16
ActiveSyms: 16
ActiveSyms: 16
ActiveSyms: 15
ActiveSyms: 15
ActiveSyms: 16
ActiveSyms: 15
ActiveSyms: 16
ActiveSyms: 16
ActiveSyms: 16
ActiveSyms: 16
ActiveSyms: 16
ActiveSyms: 15
ActiveSyms: 15
ActiveSyms: 15
ActiveSyms: 15
ActiveSyms: 15
ActiveSyms: 15
ActiveSyms: 15
ActiveSyms: 14
ActiveSyms: 14
ActiveSyms: 15
ActiveSyms: 15
ActiveSyms: 14
ActiveSyms: 14
ActiveSyms: 13
ActiveSyms: 14
ActiveSyms: 13
ActiveSyms: 14
ActiveSyms: 15
ActiveSyms: 14
ActiveSyms: 15
ActiveSyms: 14
ActiveSyms: 12
ActiveSyms: 13
ActiveSyms: 12
ActiveSyms: 14
ActiveSyms: 13
ActiveSyms: 12
ActiveSyms: 12
ActiveSyms: 12
ActiveSyms: 12
ActiveSyms: 13
ActiveSyms: 11
ActiveSyms: 10
ActiveSyms: 10
ActiveSyms: 10
ActiveSyms: 10
ActiveSyms: 9
ActiveSyms: 8
ActiveSyms: 8
ActiveSyms: 7
ActiveSyms: 6
ActiveSyms: 6
ActiveSyms: 5
ActiveSyms: 5
ActiveSyms: 7
ActiveSyms: 6
ActiveSyms: 6
ActiveSyms: 6
ActiveSyms: 5
ActiveSyms: 5
ActiveSyms: 5
ActiveSyms: 4
ActiveSyms: 4
ActiveSyms: 4
ActiveSyms: 4
ActiveSyms: 3
ActiveSyms: 2
ActiveSyms: 3
ActiveSyms: 1
ActiveSyms: 2
ActiveSyms: 1
ActiveSyms: 0
===============================================================================
restarts              : 3
conflicts             : 203            (inf /sec)
symconflicts          : 85             (inf /sec)
decisions             : 516            (0.00 % random) (inf /sec)
propagations          : 4553           (inf /sec)
sympropagations       : 397            (inf /sec)
conflict literals     : 9159           (1.89 % deleted)
literals     : 9159           (1.89 % deleted)

HEURISTIC USAGES
random                : 0           
activity w/ lookahead : 0           
activity no lookahead : 515         
original sp           : 0           
sym count             : 0           

Memory used           : 5.00 MB
CPU time              : 0 s

SATISFIABLE
